% File represents an instance of a Composite Structure problem to be solved by a CP framework
% Created on 2025-03-26 10:41:56.873
T = 58;
n = 36;
m = 60;
edges = [(2, 1),
(8, 7),
(14, 13),
(19, 20),
(26, 25),
(32, 31),
(2, 3),
(8, 9),
(14, 15),
(20, 21),
(26, 27),
(32, 33),
(3, 4),
(10, 9),
(16, 15),
(22, 21),
(27, 28),
(33, 34),
(4, 5),
(10, 11),
(16, 17),
(23, 22),
(29, 28),
(34, 35),
(5, 6),
(11, 12),
(17, 18),
(23, 24),
(30, 29),
(36, 35),
(7, 1),
(7, 13),
(19, 13),
(19, 25),
(31, 25),
(2, 8),
(8, 14),
(14, 20),
(26, 20),
(32, 26),
(3, 9),
(9, 15),
(15, 21),
(27, 21),
(33, 27),
(10, 4),
(10, 16),
(16, 22),
(22, 28),
(34, 28),
(11, 5),
(17, 11),
(23, 17),
(23, 29),
(29, 35),
(12, 6),
(18, 12),
(24, 18),
(30, 24),
(30, 36)];
counts = [|20, 4, 20, 6,
|20, 6, 20, 10,
|20, 6, 20, 8,
|20, 4, 20, 4,
|20, 2, 20, 4,
|18, 2, 18, 2,
|20, 6, 20, 6,
|20, 6, 20, 8,
|20, 6, 20, 6,
|20, 8, 20, 6,
|20, 2, 20, 6,
|20, 2, 20, 2,
|20, 6, 20, 4,
|20, 6, 20, 6,
|20, 2, 20, 6,
|20, 6, 20, 6,
|20, 4, 20, 6,
|20, 4, 20, 2,
|22, 8, 22, 4,
|20, 6, 20, 4,
|20, 2, 20, 2,
|20, 6, 20, 2,
|20, 8, 20, 6,
|20, 4, 20, 4,
|20, 8, 20, 4,
|20, 12, 20, 4,
|20, 8, 20, 2,
|20, 4, 20, 2,
|20, 4, 20, 4,
|20, 4, 20, 6,
|20, 12, 20, 4,
|20, 14, 20, 4,
|20, 8, 20, 4,
|20, 6, 20, 2,
|18, 4, 18, 2,
|20, 4, 20, 4|];
